; benchmark generated from python API
(set-info :status unknown)
(declare-fun x_1_0 () Bool)
(declare-fun x_0_0 () Bool)
(declare-fun x_1_1 () Bool)
(declare-fun x_0_1 () Bool)
(declare-fun x_1_2 () Bool)
(declare-fun x_0_2 () Bool)
(declare-fun x_1_3 () Bool)
(declare-fun x_0_3 () Bool)
(declare-fun x_1_4 () Bool)
(declare-fun x_0_4 () Bool)
(declare-fun x_1_5 () Bool)
(declare-fun x_0_5 () Bool)
(declare-fun y_0_6_0 () Bool)
(declare-fun y_0_5_0 () Bool)
(declare-fun y_0_4_0 () Bool)
(declare-fun y_0_3_0 () Bool)
(declare-fun y_0_2_0 () Bool)
(declare-fun y_0_1_0 () Bool)
(declare-fun y_0_0_0 () Bool)
(declare-fun y_0_0_6 () Bool)
(declare-fun y_0_0_5 () Bool)
(declare-fun y_0_0_4 () Bool)
(declare-fun y_0_0_3 () Bool)
(declare-fun y_0_0_2 () Bool)
(declare-fun y_0_0_1 () Bool)
(declare-fun y_0_6_1 () Bool)
(declare-fun y_0_5_1 () Bool)
(declare-fun y_0_4_1 () Bool)
(declare-fun y_0_3_1 () Bool)
(declare-fun y_0_2_1 () Bool)
(declare-fun y_0_1_1 () Bool)
(declare-fun y_0_1_6 () Bool)
(declare-fun y_0_1_5 () Bool)
(declare-fun y_0_1_4 () Bool)
(declare-fun y_0_1_3 () Bool)
(declare-fun y_0_1_2 () Bool)
(declare-fun y_0_6_2 () Bool)
(declare-fun y_0_5_2 () Bool)
(declare-fun y_0_4_2 () Bool)
(declare-fun y_0_3_2 () Bool)
(declare-fun y_0_2_2 () Bool)
(declare-fun y_0_2_6 () Bool)
(declare-fun y_0_2_5 () Bool)
(declare-fun y_0_2_4 () Bool)
(declare-fun y_0_2_3 () Bool)
(declare-fun y_0_6_3 () Bool)
(declare-fun y_0_5_3 () Bool)
(declare-fun y_0_4_3 () Bool)
(declare-fun y_0_3_3 () Bool)
(declare-fun y_0_3_6 () Bool)
(declare-fun y_0_3_5 () Bool)
(declare-fun y_0_3_4 () Bool)
(declare-fun y_0_6_4 () Bool)
(declare-fun y_0_5_4 () Bool)
(declare-fun y_0_4_4 () Bool)
(declare-fun y_0_4_6 () Bool)
(declare-fun y_0_4_5 () Bool)
(declare-fun y_0_6_5 () Bool)
(declare-fun y_0_5_5 () Bool)
(declare-fun y_0_5_6 () Bool)
(declare-fun y_1_6_0 () Bool)
(declare-fun y_1_5_0 () Bool)
(declare-fun y_1_4_0 () Bool)
(declare-fun y_1_3_0 () Bool)
(declare-fun y_1_2_0 () Bool)
(declare-fun y_1_1_0 () Bool)
(declare-fun y_1_0_0 () Bool)
(declare-fun y_1_0_6 () Bool)
(declare-fun y_1_0_5 () Bool)
(declare-fun y_1_0_4 () Bool)
(declare-fun y_1_0_3 () Bool)
(declare-fun y_1_0_2 () Bool)
(declare-fun y_1_0_1 () Bool)
(declare-fun y_1_6_1 () Bool)
(declare-fun y_1_5_1 () Bool)
(declare-fun y_1_4_1 () Bool)
(declare-fun y_1_3_1 () Bool)
(declare-fun y_1_2_1 () Bool)
(declare-fun y_1_1_1 () Bool)
(declare-fun y_1_1_6 () Bool)
(declare-fun y_1_1_5 () Bool)
(declare-fun y_1_1_4 () Bool)
(declare-fun y_1_1_3 () Bool)
(declare-fun y_1_1_2 () Bool)
(declare-fun y_1_6_2 () Bool)
(declare-fun y_1_5_2 () Bool)
(declare-fun y_1_4_2 () Bool)
(declare-fun y_1_3_2 () Bool)
(declare-fun y_1_2_2 () Bool)
(declare-fun y_1_2_6 () Bool)
(declare-fun y_1_2_5 () Bool)
(declare-fun y_1_2_4 () Bool)
(declare-fun y_1_2_3 () Bool)
(declare-fun y_1_6_3 () Bool)
(declare-fun y_1_5_3 () Bool)
(declare-fun y_1_4_3 () Bool)
(declare-fun y_1_3_3 () Bool)
(declare-fun y_1_3_6 () Bool)
(declare-fun y_1_3_5 () Bool)
(declare-fun y_1_3_4 () Bool)
(declare-fun y_1_6_4 () Bool)
(declare-fun y_1_5_4 () Bool)
(declare-fun y_1_4_4 () Bool)
(declare-fun y_1_4_6 () Bool)
(declare-fun y_1_4_5 () Bool)
(declare-fun y_1_6_5 () Bool)
(declare-fun y_1_5_5 () Bool)
(declare-fun y_1_5_6 () Bool)
(declare-fun y_0_6_6 () Bool)
(declare-fun y_1_6_6 () Bool)
(declare-fun distance_0 () Real)
(declare-fun distance_1 () Real)
(declare-fun D () Real)
(declare-fun u_0_0 () Int)
(declare-fun u_0_1 () Int)
(declare-fun u_0_2 () Int)
(declare-fun u_0_3 () Int)
(declare-fun u_0_4 () Int)
(declare-fun u_0_5 () Int)
(declare-fun u_1_0 () Int)
(declare-fun u_1_1 () Int)
(declare-fun u_1_2 () Int)
(declare-fun u_1_3 () Int)
(declare-fun u_1_4 () Int)
(declare-fun u_1_5 () Int)
(assert
 ((_ pbeq 1 1 1) x_0_0 x_1_0))
(assert
 ((_ pbeq 1 1 1) x_0_1 x_1_1))
(assert
 ((_ pbeq 1 1 1) x_0_2 x_1_2))
(assert
 ((_ pbeq 1 1 1) x_0_3 x_1_3))
(assert
 ((_ pbeq 1 1 1) x_0_4 x_1_4))
(assert
 ((_ pbeq 1 1 1) x_0_5 x_1_5))
(assert
 ((_ pble 15 3 2 6 5 4 4) x_0_0 x_0_1 x_0_2 x_0_3 x_0_4 x_0_5))
(assert
 ((_ pble 10 3 2 6 5 4 4) x_1_0 x_1_1 x_1_2 x_1_3 x_1_4 x_1_5))
(assert
 (let ((?x167 (ite x_0_0 1 0)))
 (let ((?x165 (ite y_0_6_0 1 0)))
 (let ((?x164 (ite y_0_5_0 1 0)))
 (let ((?x163 (ite y_0_4_0 1 0)))
 (let ((?x162 (ite y_0_3_0 1 0)))
 (let ((?x161 (ite y_0_2_0 1 0)))
 (let ((?x160 (ite y_0_1_0 1 0)))
 (let ((?x159 (ite y_0_0_0 1 0)))
 (= (+ ?x159 ?x160 ?x161 ?x162 ?x163 ?x164 ?x165) ?x167))))))))))
(assert
 (let ((?x167 (ite x_0_0 1 0)))
 (let ((?x178 (ite y_0_0_6 1 0)))
 (let ((?x177 (ite y_0_0_5 1 0)))
 (let ((?x176 (ite y_0_0_4 1 0)))
 (let ((?x175 (ite y_0_0_3 1 0)))
 (let ((?x174 (ite y_0_0_2 1 0)))
 (let ((?x173 (ite y_0_0_1 1 0)))
 (let ((?x159 (ite y_0_0_0 1 0)))
 (= (+ ?x159 ?x173 ?x174 ?x175 ?x176 ?x177 ?x178) ?x167))))))))))
(assert
 (let ((?x190 (ite x_0_1 1 0)))
 (let ((?x188 (ite y_0_6_1 1 0)))
 (let ((?x187 (ite y_0_5_1 1 0)))
 (let ((?x186 (ite y_0_4_1 1 0)))
 (let ((?x185 (ite y_0_3_1 1 0)))
 (let ((?x184 (ite y_0_2_1 1 0)))
 (let ((?x183 (ite y_0_1_1 1 0)))
 (let ((?x173 (ite y_0_0_1 1 0)))
 (= (+ ?x173 ?x183 ?x184 ?x185 ?x186 ?x187 ?x188) ?x190))))))))))
(assert
 (let ((?x190 (ite x_0_1 1 0)))
 (let ((?x199 (ite y_0_1_6 1 0)))
 (let ((?x198 (ite y_0_1_5 1 0)))
 (let ((?x197 (ite y_0_1_4 1 0)))
 (let ((?x196 (ite y_0_1_3 1 0)))
 (let ((?x195 (ite y_0_1_2 1 0)))
 (let ((?x183 (ite y_0_1_1 1 0)))
 (let ((?x160 (ite y_0_1_0 1 0)))
 (= (+ ?x160 ?x183 ?x195 ?x196 ?x197 ?x198 ?x199) ?x190))))))))))
(assert
 (let ((?x210 (ite x_0_2 1 0)))
 (let ((?x208 (ite y_0_6_2 1 0)))
 (let ((?x207 (ite y_0_5_2 1 0)))
 (let ((?x206 (ite y_0_4_2 1 0)))
 (let ((?x205 (ite y_0_3_2 1 0)))
 (let ((?x204 (ite y_0_2_2 1 0)))
 (let ((?x195 (ite y_0_1_2 1 0)))
 (let ((?x174 (ite y_0_0_2 1 0)))
 (= (+ ?x174 ?x195 ?x204 ?x205 ?x206 ?x207 ?x208) ?x210))))))))))
(assert
 (let ((?x210 (ite x_0_2 1 0)))
 (let ((?x218 (ite y_0_2_6 1 0)))
 (let ((?x217 (ite y_0_2_5 1 0)))
 (let ((?x216 (ite y_0_2_4 1 0)))
 (let ((?x215 (ite y_0_2_3 1 0)))
 (let ((?x204 (ite y_0_2_2 1 0)))
 (let ((?x184 (ite y_0_2_1 1 0)))
 (let ((?x161 (ite y_0_2_0 1 0)))
 (= (+ ?x161 ?x184 ?x204 ?x215 ?x216 ?x217 ?x218) ?x210))))))))))
(assert
 (let ((?x228 (ite x_0_3 1 0)))
 (let ((?x226 (ite y_0_6_3 1 0)))
 (let ((?x225 (ite y_0_5_3 1 0)))
 (let ((?x224 (ite y_0_4_3 1 0)))
 (let ((?x223 (ite y_0_3_3 1 0)))
 (let ((?x215 (ite y_0_2_3 1 0)))
 (let ((?x196 (ite y_0_1_3 1 0)))
 (let ((?x175 (ite y_0_0_3 1 0)))
 (= (+ ?x175 ?x196 ?x215 ?x223 ?x224 ?x225 ?x226) ?x228))))))))))
(assert
 (let ((?x228 (ite x_0_3 1 0)))
 (let ((?x235 (ite y_0_3_6 1 0)))
 (let ((?x234 (ite y_0_3_5 1 0)))
 (let ((?x233 (ite y_0_3_4 1 0)))
 (let ((?x223 (ite y_0_3_3 1 0)))
 (let ((?x205 (ite y_0_3_2 1 0)))
 (let ((?x185 (ite y_0_3_1 1 0)))
 (let ((?x162 (ite y_0_3_0 1 0)))
 (= (+ ?x162 ?x185 ?x205 ?x223 ?x233 ?x234 ?x235) ?x228))))))))))
(assert
 (let ((?x244 (ite x_0_4 1 0)))
 (let ((?x242 (ite y_0_6_4 1 0)))
 (let ((?x241 (ite y_0_5_4 1 0)))
 (let ((?x240 (ite y_0_4_4 1 0)))
 (let ((?x233 (ite y_0_3_4 1 0)))
 (let ((?x216 (ite y_0_2_4 1 0)))
 (let ((?x197 (ite y_0_1_4 1 0)))
 (let ((?x176 (ite y_0_0_4 1 0)))
 (= (+ ?x176 ?x197 ?x216 ?x233 ?x240 ?x241 ?x242) ?x244))))))))))
(assert
 (let ((?x244 (ite x_0_4 1 0)))
 (let ((?x250 (ite y_0_4_6 1 0)))
 (let ((?x249 (ite y_0_4_5 1 0)))
 (let ((?x240 (ite y_0_4_4 1 0)))
 (let ((?x224 (ite y_0_4_3 1 0)))
 (let ((?x206 (ite y_0_4_2 1 0)))
 (let ((?x186 (ite y_0_4_1 1 0)))
 (let ((?x163 (ite y_0_4_0 1 0)))
 (= (+ ?x163 ?x186 ?x206 ?x224 ?x240 ?x249 ?x250) ?x244))))))))))
(assert
 (let ((?x258 (ite x_0_5 1 0)))
 (let ((?x256 (ite y_0_6_5 1 0)))
 (let ((?x255 (ite y_0_5_5 1 0)))
 (let ((?x249 (ite y_0_4_5 1 0)))
 (let ((?x234 (ite y_0_3_5 1 0)))
 (let ((?x217 (ite y_0_2_5 1 0)))
 (let ((?x198 (ite y_0_1_5 1 0)))
 (let ((?x177 (ite y_0_0_5 1 0)))
 (= (+ ?x177 ?x198 ?x217 ?x234 ?x249 ?x255 ?x256) ?x258))))))))))
(assert
 (let ((?x258 (ite x_0_5 1 0)))
 (let ((?x263 (ite y_0_5_6 1 0)))
 (let ((?x255 (ite y_0_5_5 1 0)))
 (let ((?x241 (ite y_0_5_4 1 0)))
 (let ((?x225 (ite y_0_5_3 1 0)))
 (let ((?x207 (ite y_0_5_2 1 0)))
 (let ((?x187 (ite y_0_5_1 1 0)))
 (let ((?x164 (ite y_0_5_0 1 0)))
 (= (+ ?x164 ?x187 ?x207 ?x225 ?x241 ?x255 ?x263) ?x258))))))))))
(assert
 (let ((?x276 (ite x_1_0 1 0)))
 (let ((?x274 (ite y_1_6_0 1 0)))
 (let ((?x273 (ite y_1_5_0 1 0)))
 (let ((?x272 (ite y_1_4_0 1 0)))
 (let ((?x271 (ite y_1_3_0 1 0)))
 (let ((?x270 (ite y_1_2_0 1 0)))
 (let ((?x269 (ite y_1_1_0 1 0)))
 (let ((?x268 (ite y_1_0_0 1 0)))
 (= (+ ?x268 ?x269 ?x270 ?x271 ?x272 ?x273 ?x274) ?x276))))))))))
(assert
 (let ((?x276 (ite x_1_0 1 0)))
 (let ((?x286 (ite y_1_0_6 1 0)))
 (let ((?x285 (ite y_1_0_5 1 0)))
 (let ((?x284 (ite y_1_0_4 1 0)))
 (let ((?x283 (ite y_1_0_3 1 0)))
 (let ((?x282 (ite y_1_0_2 1 0)))
 (let ((?x281 (ite y_1_0_1 1 0)))
 (let ((?x268 (ite y_1_0_0 1 0)))
 (= (+ ?x268 ?x281 ?x282 ?x283 ?x284 ?x285 ?x286) ?x276))))))))))
(assert
 (let ((?x298 (ite x_1_1 1 0)))
 (let ((?x296 (ite y_1_6_1 1 0)))
 (let ((?x295 (ite y_1_5_1 1 0)))
 (let ((?x294 (ite y_1_4_1 1 0)))
 (let ((?x293 (ite y_1_3_1 1 0)))
 (let ((?x292 (ite y_1_2_1 1 0)))
 (let ((?x291 (ite y_1_1_1 1 0)))
 (let ((?x281 (ite y_1_0_1 1 0)))
 (= (+ ?x281 ?x291 ?x292 ?x293 ?x294 ?x295 ?x296) ?x298))))))))))
(assert
 (let ((?x298 (ite x_1_1 1 0)))
 (let ((?x307 (ite y_1_1_6 1 0)))
 (let ((?x306 (ite y_1_1_5 1 0)))
 (let ((?x305 (ite y_1_1_4 1 0)))
 (let ((?x304 (ite y_1_1_3 1 0)))
 (let ((?x303 (ite y_1_1_2 1 0)))
 (let ((?x291 (ite y_1_1_1 1 0)))
 (let ((?x269 (ite y_1_1_0 1 0)))
 (= (+ ?x269 ?x291 ?x303 ?x304 ?x305 ?x306 ?x307) ?x298))))))))))
(assert
 (let ((?x318 (ite x_1_2 1 0)))
 (let ((?x316 (ite y_1_6_2 1 0)))
 (let ((?x315 (ite y_1_5_2 1 0)))
 (let ((?x314 (ite y_1_4_2 1 0)))
 (let ((?x313 (ite y_1_3_2 1 0)))
 (let ((?x312 (ite y_1_2_2 1 0)))
 (let ((?x303 (ite y_1_1_2 1 0)))
 (let ((?x282 (ite y_1_0_2 1 0)))
 (= (+ ?x282 ?x303 ?x312 ?x313 ?x314 ?x315 ?x316) ?x318))))))))))
(assert
 (let ((?x318 (ite x_1_2 1 0)))
 (let ((?x326 (ite y_1_2_6 1 0)))
 (let ((?x325 (ite y_1_2_5 1 0)))
 (let ((?x324 (ite y_1_2_4 1 0)))
 (let ((?x323 (ite y_1_2_3 1 0)))
 (let ((?x312 (ite y_1_2_2 1 0)))
 (let ((?x292 (ite y_1_2_1 1 0)))
 (let ((?x270 (ite y_1_2_0 1 0)))
 (= (+ ?x270 ?x292 ?x312 ?x323 ?x324 ?x325 ?x326) ?x318))))))))))
(assert
 (let ((?x336 (ite x_1_3 1 0)))
 (let ((?x334 (ite y_1_6_3 1 0)))
 (let ((?x333 (ite y_1_5_3 1 0)))
 (let ((?x332 (ite y_1_4_3 1 0)))
 (let ((?x331 (ite y_1_3_3 1 0)))
 (let ((?x323 (ite y_1_2_3 1 0)))
 (let ((?x304 (ite y_1_1_3 1 0)))
 (let ((?x283 (ite y_1_0_3 1 0)))
 (= (+ ?x283 ?x304 ?x323 ?x331 ?x332 ?x333 ?x334) ?x336))))))))))
(assert
 (let ((?x336 (ite x_1_3 1 0)))
 (let ((?x343 (ite y_1_3_6 1 0)))
 (let ((?x342 (ite y_1_3_5 1 0)))
 (let ((?x341 (ite y_1_3_4 1 0)))
 (let ((?x331 (ite y_1_3_3 1 0)))
 (let ((?x313 (ite y_1_3_2 1 0)))
 (let ((?x293 (ite y_1_3_1 1 0)))
 (let ((?x271 (ite y_1_3_0 1 0)))
 (= (+ ?x271 ?x293 ?x313 ?x331 ?x341 ?x342 ?x343) ?x336))))))))))
(assert
 (let ((?x352 (ite x_1_4 1 0)))
 (let ((?x350 (ite y_1_6_4 1 0)))
 (let ((?x349 (ite y_1_5_4 1 0)))
 (let ((?x348 (ite y_1_4_4 1 0)))
 (let ((?x341 (ite y_1_3_4 1 0)))
 (let ((?x324 (ite y_1_2_4 1 0)))
 (let ((?x305 (ite y_1_1_4 1 0)))
 (let ((?x284 (ite y_1_0_4 1 0)))
 (= (+ ?x284 ?x305 ?x324 ?x341 ?x348 ?x349 ?x350) ?x352))))))))))
(assert
 (let ((?x352 (ite x_1_4 1 0)))
 (let ((?x358 (ite y_1_4_6 1 0)))
 (let ((?x357 (ite y_1_4_5 1 0)))
 (let ((?x348 (ite y_1_4_4 1 0)))
 (let ((?x332 (ite y_1_4_3 1 0)))
 (let ((?x314 (ite y_1_4_2 1 0)))
 (let ((?x294 (ite y_1_4_1 1 0)))
 (let ((?x272 (ite y_1_4_0 1 0)))
 (= (+ ?x272 ?x294 ?x314 ?x332 ?x348 ?x357 ?x358) ?x352))))))))))
(assert
 (let ((?x366 (ite x_1_5 1 0)))
 (let ((?x364 (ite y_1_6_5 1 0)))
 (let ((?x363 (ite y_1_5_5 1 0)))
 (let ((?x357 (ite y_1_4_5 1 0)))
 (let ((?x342 (ite y_1_3_5 1 0)))
 (let ((?x325 (ite y_1_2_5 1 0)))
 (let ((?x306 (ite y_1_1_5 1 0)))
 (let ((?x285 (ite y_1_0_5 1 0)))
 (= (+ ?x285 ?x306 ?x325 ?x342 ?x357 ?x363 ?x364) ?x366))))))))))
(assert
 (let ((?x366 (ite x_1_5 1 0)))
 (let ((?x371 (ite y_1_5_6 1 0)))
 (let ((?x363 (ite y_1_5_5 1 0)))
 (let ((?x349 (ite y_1_5_4 1 0)))
 (let ((?x333 (ite y_1_5_3 1 0)))
 (let ((?x315 (ite y_1_5_2 1 0)))
 (let ((?x295 (ite y_1_5_1 1 0)))
 (let ((?x273 (ite y_1_5_0 1 0)))
 (= (+ ?x273 ?x295 ?x315 ?x333 ?x349 ?x363 ?x371) ?x366))))))))))
(assert
 (let ((?x258 (ite x_0_5 1 0)))
 (let ((?x244 (ite x_0_4 1 0)))
 (let ((?x228 (ite x_0_3 1 0)))
 (let ((?x210 (ite x_0_2 1 0)))
 (let ((?x190 (ite x_0_1 1 0)))
 (let ((?x167 (ite x_0_0 1 0)))
 (let ((?x376 (+ ?x167 ?x190 ?x210 ?x228 ?x244 ?x258)))
 (>= ?x376 1)))))))))
(assert
 (let ((?x366 (ite x_1_5 1 0)))
 (let ((?x352 (ite x_1_4 1 0)))
 (let ((?x336 (ite x_1_3 1 0)))
 (let ((?x318 (ite x_1_2 1 0)))
 (let ((?x298 (ite x_1_1 1 0)))
 (let ((?x276 (ite x_1_0 1 0)))
 (let ((?x378 (+ ?x276 ?x298 ?x318 ?x336 ?x352 ?x366)))
 (>= ?x378 1)))))))))
(assert
 (let ((?x258 (ite x_0_5 1 0)))
 (let ((?x244 (ite x_0_4 1 0)))
 (let ((?x228 (ite x_0_3 1 0)))
 (let ((?x210 (ite x_0_2 1 0)))
 (let ((?x190 (ite x_0_1 1 0)))
 (let ((?x167 (ite x_0_0 1 0)))
 (let ((?x376 (+ ?x167 ?x190 ?x210 ?x228 ?x244 ?x258)))
 (let ((?x382 (ite (> ?x376 0) 1 0)))
 (let ((?x256 (ite y_0_6_5 1 0)))
 (let ((?x242 (ite y_0_6_4 1 0)))
 (let ((?x226 (ite y_0_6_3 1 0)))
 (let ((?x208 (ite y_0_6_2 1 0)))
 (let ((?x188 (ite y_0_6_1 1 0)))
 (let ((?x165 (ite y_0_6_0 1 0)))
 (= (+ ?x165 ?x188 ?x208 ?x226 ?x242 ?x256) ?x382))))))))))))))))
(assert
 (let ((?x258 (ite x_0_5 1 0)))
 (let ((?x244 (ite x_0_4 1 0)))
 (let ((?x228 (ite x_0_3 1 0)))
 (let ((?x210 (ite x_0_2 1 0)))
 (let ((?x190 (ite x_0_1 1 0)))
 (let ((?x167 (ite x_0_0 1 0)))
 (let ((?x376 (+ ?x167 ?x190 ?x210 ?x228 ?x244 ?x258)))
 (let ((?x382 (ite (> ?x376 0) 1 0)))
 (let ((?x263 (ite y_0_5_6 1 0)))
 (let ((?x250 (ite y_0_4_6 1 0)))
 (let ((?x235 (ite y_0_3_6 1 0)))
 (let ((?x218 (ite y_0_2_6 1 0)))
 (let ((?x199 (ite y_0_1_6 1 0)))
 (let ((?x178 (ite y_0_0_6 1 0)))
 (= (+ ?x178 ?x199 ?x218 ?x235 ?x250 ?x263) ?x382))))))))))))))))
(assert
 (let ((?x366 (ite x_1_5 1 0)))
 (let ((?x352 (ite x_1_4 1 0)))
 (let ((?x336 (ite x_1_3 1 0)))
 (let ((?x318 (ite x_1_2 1 0)))
 (let ((?x298 (ite x_1_1 1 0)))
 (let ((?x276 (ite x_1_0 1 0)))
 (let ((?x378 (+ ?x276 ?x298 ?x318 ?x336 ?x352 ?x366)))
 (let ((?x396 (ite (> ?x378 0) 1 0)))
 (let ((?x364 (ite y_1_6_5 1 0)))
 (let ((?x350 (ite y_1_6_4 1 0)))
 (let ((?x334 (ite y_1_6_3 1 0)))
 (let ((?x316 (ite y_1_6_2 1 0)))
 (let ((?x296 (ite y_1_6_1 1 0)))
 (let ((?x274 (ite y_1_6_0 1 0)))
 (= (+ ?x274 ?x296 ?x316 ?x334 ?x350 ?x364) ?x396))))))))))))))))
(assert
 (let ((?x366 (ite x_1_5 1 0)))
 (let ((?x352 (ite x_1_4 1 0)))
 (let ((?x336 (ite x_1_3 1 0)))
 (let ((?x318 (ite x_1_2 1 0)))
 (let ((?x298 (ite x_1_1 1 0)))
 (let ((?x276 (ite x_1_0 1 0)))
 (let ((?x378 (+ ?x276 ?x298 ?x318 ?x336 ?x352 ?x366)))
 (let ((?x396 (ite (> ?x378 0) 1 0)))
 (let ((?x371 (ite y_1_5_6 1 0)))
 (let ((?x358 (ite y_1_4_6 1 0)))
 (let ((?x343 (ite y_1_3_6 1 0)))
 (let ((?x326 (ite y_1_2_6 1 0)))
 (let ((?x307 (ite y_1_1_6 1 0)))
 (let ((?x286 (ite y_1_0_6 1 0)))
 (= (+ ?x286 ?x307 ?x326 ?x343 ?x358 ?x371) ?x396))))))))))))))))
(assert
 (not y_0_0_0))
(assert
 (not y_0_1_1))
(assert
 (not y_0_2_2))
(assert
 (not y_0_3_3))
(assert
 (not y_0_4_4))
(assert
 (not y_0_5_5))
(assert
 (not y_0_6_6))
(assert
 (not y_1_0_0))
(assert
 (not y_1_1_1))
(assert
 (not y_1_2_2))
(assert
 (not y_1_3_3))
(assert
 (not y_1_4_4))
(assert
 (not y_1_5_5))
(assert
 (not y_1_6_6))
(assert
 (let ((?x474 (ite y_0_6_5 4 0)))
 (let ((?x473 (ite y_0_6_4 4 0)))
 (let ((?x472 (ite y_0_6_3 3 0)))
 (let ((?x471 (ite y_0_6_2 4 0)))
 (let ((?x470 (ite y_0_6_1 3 0)))
 (let ((?x469 (ite y_0_6_0 2 0)))
 (let ((?x468 (ite y_0_5_6 4 0)))
 (let ((?x466 (ite y_0_5_4 2 0)))
 (let ((?x465 (ite y_0_5_3 3 0)))
 (let ((?x464 (ite y_0_5_2 8 0)))
 (let ((?x463 (ite y_0_5_1 7 0)))
 (let ((?x462 (ite y_0_5_0 6 0)))
 (let ((?x461 (ite y_0_4_6 4 0)))
 (let ((?x460 (ite y_0_4_5 2 0)))
 (let ((?x458 (ite y_0_4_3 3 0)))
 (let ((?x457 (ite y_0_4_2 8 0)))
 (let ((?x455 (ite y_0_4_1 7 0)))
 (let ((?x454 (ite y_0_4_0 6 0)))
 (let ((?x453 (ite y_0_3_6 2 0)))
 (let ((?x452 (ite y_0_3_5 3 0)))
 (let ((?x451 (ite y_0_3_4 3 0)))
 (let ((?x449 (ite y_0_3_2 5 0)))
 (let ((?x448 (ite y_0_3_1 4 0)))
 (let ((?x447 (ite y_0_3_0 4 0)))
 (let ((?x446 (ite y_0_2_6 4 0)))
 (let ((?x445 (ite y_0_2_5 6 0)))
 (let ((?x444 (ite y_0_2_4 6 0)))
 (let ((?x443 (ite y_0_2_3 5 0)))
 (let ((?x184 (ite y_0_2_1 1 0)))
 (let ((?x441 (ite y_0_2_0 4 0)))
 (let ((?x440 (ite y_0_1_6 3 0)))
 (let ((?x439 (ite y_0_1_5 7 0)))
 (let ((?x437 (ite y_0_1_4 5 0)))
 (let ((?x436 (ite y_0_1_3 4 0)))
 (let ((?x195 (ite y_0_1_2 1 0)))
 (let ((?x434 (ite y_0_1_0 3 0)))
 (let ((?x433 (ite y_0_0_6 2 0)))
 (let ((?x431 (ite y_0_0_5 6 0)))
 (let ((?x430 (ite y_0_0_4 6 0)))
 (let ((?x428 (ite y_0_0_3 5 0)))
 (let ((?x426 (ite y_0_0_2 4 0)))
 (let ((?x424 (ite y_0_0_1 3 0)))
 (let ((?x476 (+ (ite y_0_0_0 0 0) ?x424 ?x426 ?x428 ?x430 ?x431 ?x433 ?x434 (ite y_0_1_1 0 0) ?x195 ?x436 ?x437 ?x439 ?x440 ?x441 ?x184 (ite y_0_2_2 0 0) ?x443 ?x444 ?x445 ?x446 ?x447 ?x448 ?x449 (ite y_0_3_3 0 0) ?x451 ?x452 ?x453 ?x454 ?x455 ?x457 ?x458 (ite y_0_4_4 0 0) ?x460 ?x461 ?x462 ?x463 ?x464 ?x465 ?x466 (ite y_0_5_5 0 0) ?x468 ?x469 ?x470 ?x471 ?x472 ?x473 ?x474 (ite y_0_6_6 0 0))))
 (= distance_0 (to_real ?x476))))))))))))))))))))))))))))))))))))))))))))))
(assert
 (let ((?x613 (ite y_1_6_5 4 0)))
 (let ((?x612 (ite y_1_6_4 4 0)))
 (let ((?x611 (ite y_1_6_3 3 0)))
 (let ((?x610 (ite y_1_6_2 4 0)))
 (let ((?x609 (ite y_1_6_1 3 0)))
 (let ((?x608 (ite y_1_6_0 2 0)))
 (let ((?x607 (ite y_1_5_6 4 0)))
 (let ((?x605 (ite y_1_5_4 2 0)))
 (let ((?x604 (ite y_1_5_3 3 0)))
 (let ((?x603 (ite y_1_5_2 8 0)))
 (let ((?x602 (ite y_1_5_1 7 0)))
 (let ((?x601 (ite y_1_5_0 6 0)))
 (let ((?x600 (ite y_1_4_6 4 0)))
 (let ((?x599 (ite y_1_4_5 2 0)))
 (let ((?x597 (ite y_1_4_3 3 0)))
 (let ((?x596 (ite y_1_4_2 8 0)))
 (let ((?x595 (ite y_1_4_1 7 0)))
 (let ((?x594 (ite y_1_4_0 6 0)))
 (let ((?x593 (ite y_1_3_6 2 0)))
 (let ((?x592 (ite y_1_3_5 3 0)))
 (let ((?x591 (ite y_1_3_4 3 0)))
 (let ((?x589 (ite y_1_3_2 5 0)))
 (let ((?x588 (ite y_1_3_1 4 0)))
 (let ((?x587 (ite y_1_3_0 4 0)))
 (let ((?x586 (ite y_1_2_6 4 0)))
 (let ((?x585 (ite y_1_2_5 6 0)))
 (let ((?x584 (ite y_1_2_4 6 0)))
 (let ((?x583 (ite y_1_2_3 5 0)))
 (let ((?x292 (ite y_1_2_1 1 0)))
 (let ((?x581 (ite y_1_2_0 4 0)))
 (let ((?x580 (ite y_1_1_6 3 0)))
 (let ((?x579 (ite y_1_1_5 7 0)))
 (let ((?x578 (ite y_1_1_4 5 0)))
 (let ((?x577 (ite y_1_1_3 4 0)))
 (let ((?x303 (ite y_1_1_2 1 0)))
 (let ((?x575 (ite y_1_1_0 3 0)))
 (let ((?x574 (ite y_1_0_6 2 0)))
 (let ((?x573 (ite y_1_0_5 6 0)))
 (let ((?x572 (ite y_1_0_4 6 0)))
 (let ((?x571 (ite y_1_0_3 5 0)))
 (let ((?x570 (ite y_1_0_2 4 0)))
 (let ((?x569 (ite y_1_0_1 3 0)))
 (let ((?x615 (+ (ite y_1_0_0 0 0) ?x569 ?x570 ?x571 ?x572 ?x573 ?x574 ?x575 (ite y_1_1_1 0 0) ?x303 ?x577 ?x578 ?x579 ?x580 ?x581 ?x292 (ite y_1_2_2 0 0) ?x583 ?x584 ?x585 ?x586 ?x587 ?x588 ?x589 (ite y_1_3_3 0 0) ?x591 ?x592 ?x593 ?x594 ?x595 ?x596 ?x597 (ite y_1_4_4 0 0) ?x599 ?x600 ?x601 ?x602 ?x603 ?x604 ?x605 (ite y_1_5_5 0 0) ?x607 ?x608 ?x609 ?x610 ?x611 ?x612 ?x613 (ite y_1_6_6 0 0))))
 (= distance_1 (to_real ?x615))))))))))))))))))))))))))))))))))))))))))))))
(assert
 (<= distance_0 D))
(assert
 (<= distance_1 D))
(assert
 (>= u_0_0 1))
(assert
 (<= u_0_0 6))
(assert
 (>= u_0_1 1))
(assert
 (<= u_0_1 6))
(assert
 (>= u_0_2 1))
(assert
 (<= u_0_2 6))
(assert
 (>= u_0_3 1))
(assert
 (<= u_0_3 6))
(assert
 (>= u_0_4 1))
(assert
 (<= u_0_4 6))
(assert
 (>= u_0_5 1))
(assert
 (<= u_0_5 6))
(assert
 (>= u_1_0 1))
(assert
 (<= u_1_0 6))
(assert
 (>= u_1_1 1))
(assert
 (<= u_1_1 6))
(assert
 (>= u_1_2 1))
(assert
 (<= u_1_2 6))
(assert
 (>= u_1_3 1))
(assert
 (<= u_1_3 6))
(assert
 (>= u_1_4 1))
(assert
 (<= u_1_4 6))
(assert
 (>= u_1_5 1))
(assert
 (<= u_1_5 6))
(assert
 (>= u_0_1 (- (+ u_0_0 1) (* 6 (- 1 (ite y_0_0_1 1 0))))))
(assert
 (>= u_0_2 (- (+ u_0_0 1) (* 6 (- 1 (ite y_0_0_2 1 0))))))
(assert
 (>= u_0_3 (- (+ u_0_0 1) (* 6 (- 1 (ite y_0_0_3 1 0))))))
(assert
 (>= u_0_4 (- (+ u_0_0 1) (* 6 (- 1 (ite y_0_0_4 1 0))))))
(assert
 (>= u_0_5 (- (+ u_0_0 1) (* 6 (- 1 (ite y_0_0_5 1 0))))))
(assert
 (>= u_0_0 (- (+ u_0_1 1) (* 6 (- 1 (ite y_0_1_0 1 0))))))
(assert
 (>= u_0_2 (- (+ u_0_1 1) (* 6 (- 1 (ite y_0_1_2 1 0))))))
(assert
 (>= u_0_3 (- (+ u_0_1 1) (* 6 (- 1 (ite y_0_1_3 1 0))))))
(assert
 (>= u_0_4 (- (+ u_0_1 1) (* 6 (- 1 (ite y_0_1_4 1 0))))))
(assert
 (>= u_0_5 (- (+ u_0_1 1) (* 6 (- 1 (ite y_0_1_5 1 0))))))
(assert
 (>= u_0_0 (- (+ u_0_2 1) (* 6 (- 1 (ite y_0_2_0 1 0))))))
(assert
 (>= u_0_1 (- (+ u_0_2 1) (* 6 (- 1 (ite y_0_2_1 1 0))))))
(assert
 (>= u_0_3 (- (+ u_0_2 1) (* 6 (- 1 (ite y_0_2_3 1 0))))))
(assert
 (>= u_0_4 (- (+ u_0_2 1) (* 6 (- 1 (ite y_0_2_4 1 0))))))
(assert
 (>= u_0_5 (- (+ u_0_2 1) (* 6 (- 1 (ite y_0_2_5 1 0))))))
(assert
 (>= u_0_0 (- (+ u_0_3 1) (* 6 (- 1 (ite y_0_3_0 1 0))))))
(assert
 (>= u_0_1 (- (+ u_0_3 1) (* 6 (- 1 (ite y_0_3_1 1 0))))))
(assert
 (>= u_0_2 (- (+ u_0_3 1) (* 6 (- 1 (ite y_0_3_2 1 0))))))
(assert
 (>= u_0_4 (- (+ u_0_3 1) (* 6 (- 1 (ite y_0_3_4 1 0))))))
(assert
 (>= u_0_5 (- (+ u_0_3 1) (* 6 (- 1 (ite y_0_3_5 1 0))))))
(assert
 (>= u_0_0 (- (+ u_0_4 1) (* 6 (- 1 (ite y_0_4_0 1 0))))))
(assert
 (>= u_0_1 (- (+ u_0_4 1) (* 6 (- 1 (ite y_0_4_1 1 0))))))
(assert
 (>= u_0_2 (- (+ u_0_4 1) (* 6 (- 1 (ite y_0_4_2 1 0))))))
(assert
 (>= u_0_3 (- (+ u_0_4 1) (* 6 (- 1 (ite y_0_4_3 1 0))))))
(assert
 (>= u_0_5 (- (+ u_0_4 1) (* 6 (- 1 (ite y_0_4_5 1 0))))))
(assert
 (>= u_0_0 (- (+ u_0_5 1) (* 6 (- 1 (ite y_0_5_0 1 0))))))
(assert
 (>= u_0_1 (- (+ u_0_5 1) (* 6 (- 1 (ite y_0_5_1 1 0))))))
(assert
 (>= u_0_2 (- (+ u_0_5 1) (* 6 (- 1 (ite y_0_5_2 1 0))))))
(assert
 (>= u_0_3 (- (+ u_0_5 1) (* 6 (- 1 (ite y_0_5_3 1 0))))))
(assert
 (>= u_0_4 (- (+ u_0_5 1) (* 6 (- 1 (ite y_0_5_4 1 0))))))
(assert
 (>= u_1_1 (- (+ u_1_0 1) (* 6 (- 1 (ite y_1_0_1 1 0))))))
(assert
 (>= u_1_2 (- (+ u_1_0 1) (* 6 (- 1 (ite y_1_0_2 1 0))))))
(assert
 (>= u_1_3 (- (+ u_1_0 1) (* 6 (- 1 (ite y_1_0_3 1 0))))))
(assert
 (>= u_1_4 (- (+ u_1_0 1) (* 6 (- 1 (ite y_1_0_4 1 0))))))
(assert
 (>= u_1_5 (- (+ u_1_0 1) (* 6 (- 1 (ite y_1_0_5 1 0))))))
(assert
 (>= u_1_0 (- (+ u_1_1 1) (* 6 (- 1 (ite y_1_1_0 1 0))))))
(assert
 (>= u_1_2 (- (+ u_1_1 1) (* 6 (- 1 (ite y_1_1_2 1 0))))))
(assert
 (>= u_1_3 (- (+ u_1_1 1) (* 6 (- 1 (ite y_1_1_3 1 0))))))
(assert
 (>= u_1_4 (- (+ u_1_1 1) (* 6 (- 1 (ite y_1_1_4 1 0))))))
(assert
 (>= u_1_5 (- (+ u_1_1 1) (* 6 (- 1 (ite y_1_1_5 1 0))))))
(assert
 (>= u_1_0 (- (+ u_1_2 1) (* 6 (- 1 (ite y_1_2_0 1 0))))))
(assert
 (>= u_1_1 (- (+ u_1_2 1) (* 6 (- 1 (ite y_1_2_1 1 0))))))
(assert
 (>= u_1_3 (- (+ u_1_2 1) (* 6 (- 1 (ite y_1_2_3 1 0))))))
(assert
 (>= u_1_4 (- (+ u_1_2 1) (* 6 (- 1 (ite y_1_2_4 1 0))))))
(assert
 (>= u_1_5 (- (+ u_1_2 1) (* 6 (- 1 (ite y_1_2_5 1 0))))))
(assert
 (>= u_1_0 (- (+ u_1_3 1) (* 6 (- 1 (ite y_1_3_0 1 0))))))
(assert
 (>= u_1_1 (- (+ u_1_3 1) (* 6 (- 1 (ite y_1_3_1 1 0))))))
(assert
 (>= u_1_2 (- (+ u_1_3 1) (* 6 (- 1 (ite y_1_3_2 1 0))))))
(assert
 (>= u_1_4 (- (+ u_1_3 1) (* 6 (- 1 (ite y_1_3_4 1 0))))))
(assert
 (>= u_1_5 (- (+ u_1_3 1) (* 6 (- 1 (ite y_1_3_5 1 0))))))
(assert
 (>= u_1_0 (- (+ u_1_4 1) (* 6 (- 1 (ite y_1_4_0 1 0))))))
(assert
 (>= u_1_1 (- (+ u_1_4 1) (* 6 (- 1 (ite y_1_4_1 1 0))))))
(assert
 (>= u_1_2 (- (+ u_1_4 1) (* 6 (- 1 (ite y_1_4_2 1 0))))))
(assert
 (>= u_1_3 (- (+ u_1_4 1) (* 6 (- 1 (ite y_1_4_3 1 0))))))
(assert
 (>= u_1_5 (- (+ u_1_4 1) (* 6 (- 1 (ite y_1_4_5 1 0))))))
(assert
 (>= u_1_0 (- (+ u_1_5 1) (* 6 (- 1 (ite y_1_5_0 1 0))))))
(assert
 (>= u_1_1 (- (+ u_1_5 1) (* 6 (- 1 (ite y_1_5_1 1 0))))))
(assert
 (>= u_1_2 (- (+ u_1_5 1) (* 6 (- 1 (ite y_1_5_2 1 0))))))
(assert
 (>= u_1_3 (- (+ u_1_5 1) (* 6 (- 1 (ite y_1_5_3 1 0))))))
(assert
 (>= u_1_4 (- (+ u_1_5 1) (* 6 (- 1 (ite y_1_5_4 1 0))))))
(assert
 (>= D 8.0))
(assert
 (<= D 17.0))
(check-sat)
